33D32945 STP File, STP Format Version 1.0

SECTION Comments
Name "shell_n12_d3_s15"
Problem "Euclidean Steiner Tree Problem"
Remark "Generated with STPGenerator. 3 dimensions."
END

SECTION Graph
Nodes 12
END

SECTION Coordinates
DDD 0 -0.6406262200 0.7648503303 0.0678381788
DDD 1 -0.2386072250 -0.2237073844 -0.9449982002
DDD 2 -0.5409332348 -0.8088550087 -0.2305315821
DDD 3 -0.6245403214 0.6817296934 -0.3810433204
DDD 4 0.6816051283 0.7310944890 0.0302538790
DDD 5 -0.4958410875 0.8284997075 0.2602495930
DDD 6 0.2653898104 -0.8064497109 -0.5284005227
DDD 7 -0.8037354161 -0.1924223901 -0.5630124374
DDD 8 0.4176264409 -0.3406114066 -0.8423609830
DDD 9 0.1834696921 0.1064469777 -0.9772450629
DDD 10 -0.1394366974 0.7935948065 -0.5922539072
DDD 11 0.5856036595 0.1383408437 -0.7987053054
END
